# Objective value = 31
WA1n 0
WA1p 0
WA2n 0
WA2p 1
WB1n 1
WB1p 0
WC1n 0
WC1p 1
WD1n 2
WD1p 0
WE1n 0
WE1p 2
WE2n 0
WE2p 1
WF1n 0
WF1p 3
WG1n 0
WG1p 3
WH1n 0
WH1p 3
WT1n 0
WT1p 10
WT2n 0
WT2p 1
5 7
a 0
b 1
c 0
d 1
e 0
f 1
g 1
h 1
i 1
j 1
k 1
l 1
